c b=6,c=259
p cnf 20 110
1 3 5 6 -12 0
2 4 6 -13 0
6 -20 0
1 3 5 -6 12 0
1 3 5 -6 13 0
-6 20 0
2 4 5 -11 0
1 3 5 -14 0
5 -19 0
2 4 -5 6 12 0
6 -14 0
2 4 -5 -6 -12 0
-5 -6 14 0
2 4 -5 11 0
2 4 -5 -13 0
-5 19 0
1 3 4 -10 0
4 -18 0
1 3 -4 6 -12 0
1 3 5 6 -13 0
1 3 -4 -6 12 0
1 3 -4 5 11 0
-4 -5 6 13 0
1 3 -5 -6 -13 0
1 3 -4 -5 -11 0
1 3 -4 10 0
-4 18 0
2 3 -9 0
3 -17 0
2 4 5 6 -12 0
2 4 5 -6 12 0
4 5 -6 13 0
2 -3 5 -11 0
4 5 -14 0
2 -3 -5 11 0
2 -3 4 10 0
-3 -4 5 6 12 0
-3 -4 5 -6 -12 0
-3 -4 -6 14 0
-3 -4 5 -13 0
2 -4 -5 6 -12 0
2 -4 -5 -6 12 0
-3 -4 -6 -13 0
2 -3 -4 -10 0
2 -3 9 0
-3 17 0
1 2 -8 0
2 -16 0
3 4 6 -13 0
1 3 4 5 -11 0
3 4 -5 6 12 0
3 4 -5 -6 -12 0
1 3 4 -5 11 0
3 4 -5 -13 0
1 -2 4 -10 0
1 -2 5 6 -13 0
1 -2 -5 -6 -13 0
1 -2 -4 10 0
1 -2 3 9 0
-2 -3 4 6 -12 0
-2 -3 4 -6 12 0
-2 -3 4 5 11 0
-2 -3 -5 6 13 0
-2 -3 4 -5 -11 0
1 -3 -4 5 -11 0
-2 -3 -5 6 -12 0
-2 -3 -5 -6 12 0
1 -3 -4 -5 11 0
1 -2 -3 -9 0
1 -2 8 0
-2 16 0
1 -7 0
1 -15 0
2 3 5 6 -12 0
2 3 5 -6 12 0
2 3 5 -6 13 0
2 3 5 -14 0
2 3 4 -10 0
2 3 -4 6 -12 0
2 3 5 6 -13 0
2 3 -4 -6 12 0
2 3 -4 5 11 0
2 3 -5 -6 -13 0
2 3 -4 -5 -11 0
2 3 -4 10 0
-1 3 -9 0
-1 4 5 6 -12 0
-1 4 5 -6 12 0
-1 -4 -5 6 -12 0
-1 -4 -5 -6 12 0
-1 -3 9 0
-1 2 8 0
-1 -2 3 5 -11 0
-1 -2 3 -5 11 0
-1 -2 3 4 10 0
-1 -2 -4 5 6 12 0
-1 -2 -4 5 -6 -12 0
-1 -2 -4 -6 14 0
-1 -2 -4 5 -13 0
-1 -2 -4 -6 -13 0
-1 -2 3 -4 -10 0
-2 -3 5 6 -13 0
-2 -3 -5 -6 -13 0
-2 -3 4 -10 0
-1 -2 -4 5 -11 0
-1 -2 -4 -5 11 0
-2 -3 -4 10 0
-1 -2 -8 0
-1 7 0
-1 15 0
